13
-1 114 136 260 326 228 80 375 409 135 365 512 209 
114 -1 179 152 217 245 34 262 343 35 251 455 155 
136 179 -1 263 324 94 157 384 324 214 390 409 323 
260 152 263 -1 66 280 183 121 237 154 128 355 244 
326 217 324 66 -1 329 249 62 226 215 87 340 289 
228 245 94 280 329 -1 232 391 264 280 407 332 398 
80 34 157 183 249 232 -1 296 358 61 285 468 166 
375 262 384 121 62 391 296 -1 268 254 44 376 306 
409 343 324 237 226 264 358 268 -1 363 308 118 473 
135 35 214 154 215 280 61 254 363 -1 237 478 122 
365 251 390 128 87 407 285 44 308 237 -1 418 273 
512 455 409 355 340 332 468 376 118 478 418 -1 590 
209 155 323 244 289 398 166 306 473 122 273 590 -1 
